Teachers = {
  <"Teacher_1">
  <"Teacher_2">
  <"Teacher_3">
  <"Teacher_4">
  <"Teacher_5">
};

Classes = {
  <"Class_1" 3 15 0 0 0>
  <"Class_2" 3 15 0 0 0>
  <"Class_3" 3 15 0 0 0>
  <"Class_4" 3 15 0 0 0>
  <"Class_5" 6 60 0 0 0>
  <"Class_6" 6 60 0 0 0>
  <"Class_7" 6 60 0 0 0>
  <"Class_8" 8 100 0 0 0>
  <"Class_9" 6 60 0 0 0>
  <"Class_10" 3 15 0 0 0>
  <"Class_11" 12 60 0 0 1>
};

Rooms = {
  <"Room_1" 15 0 1 0>
  <"Room_2" 15 0 1 0>
  <"Room_3" 15 1 1 0>
  <"Room_4" 60 1 0 0>
  <"Room_5" 100 1 0 0>
  <"Room_6" 60 0 0 0>
};

TeacherExpertise = [
  [1 1 0 0 0 0 0 0 0 0 1]
  [0 0 1 0 1 1 0 0 0 0 0]
  [0 0 1 1 0 1 1 0 0 0 0]
  [0 0 0 0 0 0 0 1 1 1 0]
  [0 0 0 0 0 0 1 0 0 0 1]
];

Days = {
  "Monday"
//  "Tuesday"
//  "Wednesday"
//  "Thursday"
//  "Friday"
};

TeacherPreferences = [
  [
  [1 1 1 1 1 1 1 1 1 1 1 1
   1 0 0 0 0 0 0 0 0 0 0 0]
  ]
  [
  [0 0 0 0 0 0 0 0 0 0 0 0
   1 1 1 1 1 1 1 1 1 1 1 1]
  ]
  [
  [1 1 1 1 1 1 1 1 1 1 1 1
   1 1 1 1 1 1 1 1 1 1 1 1]
  ]
  [
  [0 0 0 0 0 0 0 1 1 1 1 1
   1 1 1 1 1 1 1 0 0 0 0 0]
  ]
  [
  [0 0 0 0 1 1 1 1 1 1 1 1
   0 0 0 0 0 0 0 0 1 1 1 1]
  ]
];
